64 926
4 10 13 14 18 20 21 22 24 25 28 30 31 33 39 40 41 45 47 48 49 51 52 54 56 57 58 59 60
2 3 11 12 14 17 21 22 24 37 38 39 40 41 45 50 51 54 55 57 58 60 61
1 4 6 8 9 10 15 17 19 24 25 26 30 31 32 33 35 40 41 42 43 46 47 48 50 52 53 55 61 63
1 5 6 7 9 10 11 12 14 16 17 18 20 21 23 26 27 28 29 32 34 39 40 42 45 46 47 48 49 50 51 58 61 62
0 2 6 8 10 11 12 15 18 19 21 22 23 28 29 30 34 36 37 38 39 43 45 47 48 49 51 54 55 56 57 58 60
3 6 9 16 17 18 19 21 26 27 28 30 31 33 34 35 36 37 44 45 51 55 56 59 62 63
2 3 4 5 8 9 11 14 15 16 17 18 20 23 32 34 38 40 41 42 43 55 57 60 62 63
3 9 10 11 18 25 29 31 34 35 36 37 42 43 46 49 50 53 54 55 58 59 63
2 4 6 9 10 17 19 21 22 26 27 28 32 33 40 43 47 48 50 53 54 56 58 59 60
2 3 5 6 7 8 13 17 18 19 22 23 24 28 29 30 31 33 35 36 37 38 41 43 50 53 56 57 58 61 62
0 2 3 4 7 8 12 13 17 21 22 24 25 27 28 30 33 36 44 53 54 55 56 61 62
1 3 4 6 7 15 16 20 21 22 23 24 27 28 29 35 36 38 39 42 46 47 49 50 53 59 60 61 62
1 3 4 10 14 20 23 28 30 33 34 36 39 42 48 54 55 56 57 58 60 61
0 9 10 14 15 16 18 19 22 23 26 27 28 31 32 33 34 38 41 44 47 53 57 58 59 60 62
0 1 3 6 12 13 15 17 19 20 24 26 27 29 30 31 33 35 36 37 38 40 41 43 45 46 47 52 54 56 59 60 61
2 4 6 11 13 14 16 18 24 28 29 31 32 33 36 37 41 42 43 44 45 47 49 50 52 54 56 57
3 5 6 11 13 15 17 18 19 21 22 24 26 29 30 31 35 36 37 38 39 42 43 44 45 48 49 51 53 54 55 57 60 61 62 63
1 2 3 5 6 8 9 10 14 16 24 27 29 31 32 33 34 37 38 44 46 49 51 52 55 56 57 62 63
0 3 4 5 6 7 9 13 15 16 20 22 24 26 29 32 34 36 37 38 40 41 44 45 48 50 51 55 56 57 58 59 60
2 4 5 8 9 13 14 16 21 22 23 24 27 30 31 33 36 37 38 39 40 42 43 48 49 50 51 52 53 54 58 60 63
0 3 6 11 12 14 18 22 23 24 25 27 29 30 31 32 33 36 37 38 39 43 44 49 51 54 55 58 59 60
0 1 3 4 5 8 10 11 16 19 22 23 24 27 28 29 33 35 36 42 44 47 49 51 52 58 59 60 61 63
0 1 4 8 9 10 11 13 16 18 19 20 21 23 25 28 30 33 35 36 37 44 47 48 49 50 51 53 54 55 59 62
3 4 6 9 11 12 13 19 20 21 22 24 26 28 34 36 38 40 42 44 45 50 53 57 59 60 63
0 1 2 9 10 11 14 15 16 17 18 19 20 21 23 28 29 32 34 35 36 37 41 43 46 47 54 59 61
0 2 7 10 20 22 29 31 33 34 38 41 44 48 49 53 54 55 56 57 59 61
2 3 5 8 13 14 16 18 23 27 31 33 35 37 41 48 49 51 55 58 59 62
3 5 8 10 11 13 14 17 19 20 21 26 28 29 32 33 36 38 39 40 41 43 45 46 55 57 58 59 60 62 63
0 3 4 5 8 9 10 11 12 13 15 21 22 23 24 27 33 34 36 39 42 46 50 52 55 56 57 58 61 62
3 4 7 9 11 14 15 16 17 18 20 21 24 25 27 36 37 38 43 44 46 48 49 51 55 56 57 60 61 63
0 2 4 5 9 10 12 14 16 19 20 22 31 32 33 37 38 41 43 44 45 47 49 55 56 58 61 63
0 2 5 7 9 13 14 15 16 17 19 20 25 26 30 32 33 35 36 40 45 47 48 49 52 56 61 62
2 3 6 8 13 15 17 18 20 24 27 30 31 36 37 40 42 43 45 48 50 52 53 54 55 56 57 60 61 62
0 2 5 8 9 10 12 13 14 15 17 19 20 21 22 25 26 27 28 30 31 34 38 39 40 42 43 44 46 48 50 52 53 54 55 56 58 62
3 4 5 6 7 12 13 17 18 23 24 25 28 33 37 40 42 45 46 47 48 49 51 53 54 57 58 62 63
2 5 7 9 11 14 16 21 22 24 26 31 37 40 43 47 49 50 52 53 55 56 58 60 61 62
4 5 7 9 10 11 12 14 15 16 18 19 20 21 22 23 24 27 28 29 31 32 38 40 47 49 53 55 60 62
1 4 5 7 9 14 15 16 17 18 19 20 22 24 26 29 30 32 34 35 38 41 43 44 45 47 48 52 53 56 59
1 4 6 9 11 13 14 16 17 18 19 20 23 25 27 29 30 33 36 37 39 40 41 42 45 46 48 50 52 58 60 63
0 1 3 4 11 12 16 19 20 27 28 33 38 42 45 47 48 49 50 54 56 57 61
0 1 2 3 6 8 14 18 19 23 27 31 32 33 34 35 36 38 42 45 46 47 48 49 50 57 59 60 63
0 1 2 6 9 13 14 15 18 24 25 26 27 30 37 38 42 44 45 50 51 55 59 61 62 63
2 3 6 7 11 12 15 16 19 21 23 28 32 33 34 38 39 40 41 44 47 49 50 53 56 59 60 62 63
2 4 6 7 8 9 14 15 16 19 20 24 27 29 30 32 33 35 37 44 45 48 49 50 52 55 56 57 59 60 61 62 63
5 10 13 15 16 17 18 20 21 22 23 25 29 30 33 37 41 42 43 46 47 48 49 50 53 63
0 1 3 4 5 14 15 16 18 23 27 30 31 32 34 37 38 39 40 41 43 47 48 53 58 60 61
2 3 7 11 14 17 24 27 28 29 33 34 38 40 44 48 49 51 52 54 55 58 60
0 2 3 4 8 11 13 14 15 21 22 24 30 31 34 35 36 37 39 40 42 44 45 48 49 50 53 56 59 60
0 2 3 4 8 12 16 18 19 22 25 26 29 31 32 33 34 37 38 39 40 43 44 45 46 47 51 52 54 55 56 60
0 3 4 7 11 15 16 17 19 20 21 22 25 26 29 30 31 34 35 36 39 40 42 43 44 46 47 51 56 58 60 61 62
1 2 3 7 8 9 11 15 18 19 22 23 28 32 33 35 38 39 40 41 42 43 44 47 52 54 56 61 63
0 1 3 4 5 16 17 18 19 20 21 22 26 29 34 41 46 48 49 52 57 59 61 62 63
0 2 14 15 17 19 21 28 31 32 33 35 37 38 43 46 48 50 51 53 54 56 62 63
2 7 8 9 10 11 13 16 19 22 23 25 32 33 34 35 36 37 42 44 45 47 52 55 56 63
0 1 4 7 8 10 12 14 15 16 19 20 22 24 25 32 33 34 39 46 48 50 52 56 59 60 61
1 2 4 5 6 7 10 12 16 17 18 20 22 25 26 27 28 29 30 32 33 35 36 41 43 46 48 53 56 58 59 60 62 63
0 4 5 8 9 10 12 14 15 17 18 25 28 29 30 31 32 33 35 37 39 42 43 47 48 49 50 52 53 54 55 57 58 59 61 62
0 1 4 6 9 12 13 15 16 17 18 23 25 27 28 29 32 34 39 40 43 51 56 58 59 60
0 1 3 4 7 8 9 12 13 18 19 20 21 26 27 28 30 33 34 35 38 45 46 49 55 56 57 59 60 61 62
0 5 7 8 11 13 14 18 20 21 22 23 24 25 26 27 37 40 41 42 43 47 51 54 55 56 57 58 61 62 63
0 1 4 6 8 11 12 13 14 16 18 19 20 21 23 27 29 32 35 36 38 40 42 43 45 46 47 48 49 54 55 57 58 63
1 2 3 9 10 11 12 14 16 21 24 25 28 29 30 31 32 35 39 41 43 45 49 50 51 54 56 58 59 62
3 5 6 9 10 11 13 16 17 22 26 27 28 31 32 33 34 35 36 41 42 43 49 51 52 55 56 58 59 61 63
2 5 6 7 16 17 19 21 23 27 29 30 34 38 40 41 42 43 44 50 51 52 53 55 59 60 62
